%%% static parameters %%%
timespan = 1;
Fact = [3];
Distr1 = [10];
Distr2 = [20];
Clients_N = [40];
Demand_W = [15];
Lt0 = [4];
Lt1 = [4];
SS_ = [0.85];
DS_D = [7];
K = [200];
MA = [500];
%%% dynamic parameters %%%
lost_ratio_sales_ret_th = 0.453291830601377;
lost_ratio_sales_ret_w = 34;
lost_ratio_sales_dis_th = 0.037069912343834166;
lost_ratio_sales_dis_w = 64;
lost_ratio_sales_fac_th = 0.15489165082746326;
lost_ratio_sales_fac_w = 22;
stock_customer_MA_mean_relative_th = 0.28329029480782375;
stock_customer_MA_mean_relative_w = 84;
stock_distributor_MA_mean_relative_th = 0.6728443271999669;
stock_distributor_MA_mean_relative_w = 84;
stock_retailer_MA_mean_relative_th = 0.233749988539658;
stock_retailer_MA_mean_relative_w = 24;
stock_factory_MA_mean_relative_th = 0.7540643526295513;
stock_factory_MA_mean_relative_w = 32;
